(set-info :Origin "This instance was generated by: BanditFuzz-- an RL fuzzer for SMT solvers" )
(set-info :Author "Joe Scott, Fed Mora, Vijay Ganesh" )
(set-info :Contact "Joe Scott, joseph.scott@uwaterloo.ca")
(set-logic QF_BV)
(declare-const bool_0 Bool)
(declare-const bool_1 Bool)
(declare-const bool_2 Bool)
(declare-const bool_3 Bool)
(declare-const bool_4 Bool)
(declare-const bv_0 (_ BitVec 32))
(declare-const bv_1 (_ BitVec 32))
(declare-const bv_2 (_ BitVec 32))
(declare-const bv_3 (_ BitVec 32))
(declare-const bv_4 (_ BitVec 32))
(assert (bvult (bvor (bvsmod #x83d22684  #x29aa7bba ) (bvsmod #x47868a60  #x0ac0fd12 )) (bvsrem (bvand #x5289e580  bv_0) (bvsmod bv_1 bv_4))))
(assert (bvult (bvsub (bvurem bv_1 bv_4) (bvsrem bv_1 bv_4)) (bvsdiv (bvudiv bv_1 bv_2) (bvshl bv_3 #xc7fe3668 ))))
(assert (not (bvsgt (bvudiv #xe39e6678  bv_1) (bvsub #xa52c7d95  bv_1))))
(assert (bvsle (bvashr (bvnor #xdafdf133  bv_2) (bvxnor bv_3 #x3aa6b263 )) (bvand (bvor bv_3 #xa0806f00 ) (bvsub bv_4 bv_3))))
(assert (or (bvsge (bvashr #xb2a09752  #x131de501 ) (bvsmod #x0d6ec051  #x405c44a2 )) (xor (=> bool_2 bool_3) (not bool_0))))
(check-sat)
(exit)
